(set-info :smt-lib-version 2.6)
(set-logic QF_FP)
(set-option :produce-models true)
(set-info :source |Random FP created by PyMPF|)
(set-info :license |https://www.gnu.org/licenses/gpl-3.0.html|)
(set-info :category random)
(set-info :status sat)
(declare-const x Float32)
(assert (= x (fp #b1 #b10010101 #b01011100100010010111011)))
;; x should be Float32(0xCAAE44BB [Rational(-11420859, 2), -5710429.500000])

(declare-const y Float32)
(assert (= y (fp #b1 #b00100000 #b11100101010001011000111)))
;; y should be Float32(0x9072A2C7 [Rational(-15901383, 332306998946228968225951765070086144), -0.000000])

(declare-const z Float32)
(assert (= z ((_ to_fp 8 24) #x00000001)))
;; z should be Float32(0x00000001 [Rational(1, 713623846352979940529142984724747568191373312), 0.000000])

(declare-const result Float32)
(assert (= result (fp.fma RTP x y z)))
(assert (= result (fp #b0 #b00110111 #b01001010010101111001000)))
(check-sat)
(exit)
